c nIsolatedPIs 8
c maxPI 56
p cnf 186 391
c gate 57 8 36 0
8 -57 0
36 -57 0
-8 -36 57 0
c gate 58 7 35 0
7 -58 0
35 -58 0
-7 -35 58 0
c gate 59 -57 -58 0
-57 -59 0
-58 -59 0
57 58 59 0
c gate 60 -8 -36 0
-8 -60 0
-36 -60 0
8 36 60 0
c gate 61 -59 -60 0
-59 -61 0
-60 -61 0
59 60 61 0
c gate 62 -7 -35 0
-7 -62 0
-35 -62 0
7 35 62 0
c gate 63 -60 -62 0
-60 -63 0
-62 -63 0
60 62 63 0
c gate 64 59 63 0
59 -64 0
63 -64 0
-59 -63 64 0
c gate 65 6 34 0
6 -65 0
34 -65 0
-6 -34 65 0
c gate 66 5 33 0
5 -66 0
33 -66 0
-5 -33 66 0
c gate 67 -65 -66 0
-65 -67 0
-66 -67 0
65 66 67 0
c gate 68 -6 -34 0
-6 -68 0
-34 -68 0
6 34 68 0
c gate 69 -67 -68 0
-67 -69 0
-68 -69 0
67 68 69 0
c gate 70 64 69 0
64 -70 0
69 -70 0
-64 -69 70 0
c gate 71 -61 -70 0
-61 -71 0
-70 -71 0
61 70 71 0
c gate 72 -10 -38 0
-10 -72 0
-38 -72 0
10 38 72 0
c gate 73 -11 -39 0
-11 -73 0
-39 -73 0
11 39 73 0
c gate 74 -72 -73 0
-72 -74 0
-73 -74 0
72 73 74 0
c gate 75 9 37 0
9 -75 0
37 -75 0
-9 -37 75 0
c gate 76 10 38 0
10 -76 0
38 -76 0
-10 -38 76 0
c gate 77 -75 -76 0
-75 -77 0
-76 -77 0
75 76 77 0
c gate 78 -9 -37 0
-9 -78 0
-37 -78 0
9 37 78 0
c gate 79 77 -78 0
77 -79 0
-78 -79 0
-77 78 79 0
c gate 80 74 79 0
74 -80 0
79 -80 0
-74 -79 80 0
c gate 81 -71 80 0
-71 -81 0
80 -81 0
71 -80 81 0
c gate 82 74 -77 0
74 -82 0
-77 -82 0
-74 77 82 0
c gate 83 11 39 0
11 -83 0
39 -83 0
-11 -39 83 0
c gate 84 12 40 0
12 -84 0
40 -84 0
-12 -40 84 0
c gate 85 -83 -84 0
-83 -85 0
-84 -85 0
83 84 85 0
c gate 86 -82 85 0
-82 -86 0
85 -86 0
82 -85 86 0
c gate 87 -81 86 0
-81 -87 0
86 -87 0
81 -86 87 0
c gate 88 -15 -43 0
-15 -88 0
-43 -88 0
15 43 88 0
c gate 89 -14 -42 0
-14 -89 0
-42 -89 0
14 42 89 0
c gate 90 -88 -89 0
-88 -90 0
-89 -90 0
88 89 90 0
c gate 91 13 41 0
13 -91 0
41 -91 0
-13 -41 91 0
c gate 92 14 42 0
14 -92 0
42 -92 0
-14 -42 92 0
c gate 93 -91 -92 0
-91 -93 0
-92 -93 0
91 92 93 0
c gate 94 90 -93 0
90 -94 0
-93 -94 0
-90 93 94 0
c gate 95 16 44 0
16 -95 0
44 -95 0
-16 -44 95 0
c gate 96 15 43 0
15 -96 0
43 -96 0
-15 -43 96 0
c gate 97 -95 -96 0
-95 -97 0
-96 -97 0
95 96 97 0
c gate 98 -94 97 0
-94 -98 0
97 -98 0
94 -97 98 0
c gate 99 -13 -41 0
-13 -99 0
-41 -99 0
13 41 99 0
c gate 100 -16 -44 0
-16 -100 0
-44 -100 0
16 44 100 0
c gate 101 -12 -40 0
-12 -101 0
-40 -101 0
12 40 101 0
c gate 102 -100 -101 0
-100 -102 0
-101 -102 0
100 101 102 0
c gate 103 -99 102 0
-99 -103 0
102 -103 0
99 -102 103 0
c gate 104 90 103 0
90 -104 0
103 -104 0
-90 -103 104 0
c gate 105 98 104 0
98 -105 0
104 -105 0
-98 -104 105 0
c gate 106 -87 105 0
-87 -106 0
105 -106 0
87 -105 106 0
c gate 107 86 -101 0
86 -107 0
-101 -107 0
-86 101 107 0
c gate 108 81 107 0
81 -108 0
107 -108 0
-81 -107 108 0
c gate 109 2 30 0
2 -109 0
30 -109 0
-2 -30 109 0
c gate 110 1 29 0
1 -110 0
29 -110 0
-1 -29 110 0
c gate 111 -109 -110 0
-109 -111 0
-110 -111 0
109 110 111 0
c gate 112 -2 -30 0
-2 -112 0
-30 -112 0
2 30 112 0
c gate 113 -3 -31 0
-3 -113 0
-31 -113 0
3 31 113 0
c gate 114 -112 -113 0
-112 -114 0
-113 -114 0
112 113 114 0
c gate 115 -111 114 0
-111 -115 0
114 -115 0
111 -114 115 0
c gate 116 4 32 0
4 -116 0
32 -116 0
-4 -32 116 0
c gate 117 3 31 0
3 -117 0
31 -117 0
-3 -31 117 0
c gate 118 -116 -117 0
-116 -118 0
-117 -118 0
116 117 118 0
c gate 119 -115 118 0
-115 -119 0
118 -119 0
115 -118 119 0
c gate 120 -4 -32 0
-4 -120 0
-32 -120 0
4 32 120 0
c gate 121 -5 -33 0
-5 -121 0
-33 -121 0
5 33 121 0
c gate 122 -120 -121 0
-120 -122 0
-121 -122 0
120 121 122 0
c gate 123 -68 122 0
-68 -123 0
122 -123 0
68 -122 123 0
c gate 124 67 123 0
67 -124 0
123 -124 0
-67 -123 124 0
c gate 125 64 124 0
64 -125 0
124 -125 0
-64 -124 125 0
c gate 126 -119 125 0
-119 -126 0
125 -126 0
119 -125 126 0
c gate 127 -19 -47 0
-19 -127 0
-47 -127 0
19 47 127 0
c gate 128 -18 -46 0
-18 -128 0
-46 -128 0
18 46 128 0
c gate 129 -127 -128 0
-127 -129 0
-128 -129 0
127 128 129 0
c gate 130 17 45 0
17 -130 0
45 -130 0
-17 -45 130 0
c gate 131 18 46 0
18 -131 0
46 -131 0
-18 -46 131 0
c gate 132 -130 -131 0
-130 -132 0
-131 -132 0
130 131 132 0
c gate 133 129 -132 0
129 -133 0
-132 -133 0
-129 132 133 0
c gate 134 20 48 0
20 -134 0
48 -134 0
-20 -48 134 0
c gate 135 19 47 0
19 -135 0
47 -135 0
-19 -47 135 0
c gate 136 -134 -135 0
-134 -136 0
-135 -136 0
134 135 136 0
c gate 137 -133 136 0
-133 -137 0
136 -137 0
133 -136 137 0
c gate 138 -17 -45 0
-17 -138 0
-45 -138 0
17 45 138 0
c gate 139 -20 -48 0
-20 -139 0
-48 -139 0
20 48 139 0
c gate 140 -138 -139 0
-138 -140 0
-139 -140 0
138 139 140 0
c gate 141 -100 140 0
-100 -141 0
140 -141 0
100 -140 141 0
c gate 142 129 141 0
129 -142 0
141 -142 0
-129 -141 142 0
c gate 143 -98 142 0
-98 -143 0
142 -143 0
98 -142 143 0
c gate 144 137 143 0
137 -144 0
143 -144 0
-137 -143 144 0
c gate 145 -126 -144 0
-126 -145 0
-144 -145 0
126 144 145 0
c gate 146 -24 -52 0
-24 -146 0
-52 -146 0
24 52 146 0
c gate 147 -21 -49 0
-21 -147 0
-49 -147 0
21 49 147 0
c gate 148 -22 -50 0
-22 -148 0
-50 -148 0
22 50 148 0
c gate 149 -147 -148 0
-147 -149 0
-148 -149 0
147 148 149 0
c gate 150 -146 149 0
-146 -150 0
149 -150 0
146 -149 150 0
c gate 151 24 52 0
24 -151 0
52 -151 0
-24 -52 151 0
c gate 152 23 51 0
23 -152 0
51 -152 0
-23 -51 152 0
c gate 153 -151 -152 0
-151 -153 0
-152 -153 0
151 152 153 0
c gate 154 22 50 0
22 -154 0
50 -154 0
-22 -50 154 0
c gate 155 21 49 0
21 -155 0
49 -155 0
-21 -49 155 0
c gate 156 -154 -155 0
-154 -156 0
-155 -156 0
154 155 156 0
c gate 157 -23 -51 0
-23 -157 0
-51 -157 0
23 51 157 0
c gate 158 -139 -157 0
-139 -158 0
-157 -158 0
139 157 158 0
c gate 159 156 158 0
156 -159 0
158 -159 0
-156 -158 159 0
c gate 160 153 159 0
153 -160 0
159 -160 0
-153 -159 160 0
c gate 161 150 160 0
150 -161 0
160 -161 0
-150 -160 161 0
c gate 162 -137 161 0
-137 -162 0
161 -162 0
137 -161 162 0
c gate 163 -148 -157 0
-148 -163 0
-157 -163 0
148 157 163 0
c gate 164 -156 163 0
-156 -164 0
163 -164 0
156 -163 164 0
c gate 165 153 -164 0
153 -165 0
-164 -165 0
-153 164 165 0
c gate 166 28 56 0
28 -166 0
56 -166 0
-28 -56 166 0
c gate 167 25 53 0
25 -167 0
53 -167 0
-25 -53 167 0
c gate 168 -28 -56 0
-28 -168 0
-56 -168 0
28 56 168 0
c gate 169 -167 -168 0
-167 -169 0
-168 -169 0
167 168 169 0
c gate 170 -166 169 0
-166 -170 0
169 -170 0
166 -169 170 0
c gate 171 27 -55 0
27 -171 0
-55 -171 0
-27 55 171 0
c gate 172 -27 55 0
-27 -172 0
55 -172 0
27 -55 172 0
c gate 173 -171 -172 0
-171 -173 0
-172 -173 0
171 172 173 0
c gate 174 -25 -53 0
-25 -174 0
-53 -174 0
25 53 174 0
c gate 175 -146 -174 0
-146 -175 0
-174 -175 0
146 174 175 0
c gate 176 26 54 0
26 -176 0
54 -176 0
-26 -54 176 0
c gate 177 -26 -54 0
-26 -177 0
-54 -177 0
26 54 177 0
c gate 178 -176 -177 0
-176 -178 0
-177 -178 0
176 177 178 0
c gate 179 175 178 0
175 -179 0
178 -179 0
-175 -178 179 0
c gate 180 -173 179 0
-173 -180 0
179 -180 0
173 -179 180 0
c gate 181 170 180 0
170 -181 0
180 -181 0
-170 -180 181 0
c gate 182 -165 181 0
-165 -182 0
181 -182 0
165 -181 182 0
c gate 183 -162 -182 0
-162 -183 0
-182 -183 0
162 182 183 0
c gate 184 145 183 0
145 -184 0
183 -184 0
-145 -183 184 0
c gate 185 -108 184 0
-108 -185 0
184 -185 0
108 -184 185 0
c gate 186 -106 185 0
-106 -186 0
185 -186 0
106 -185 186 0
c PO
-186 0
